benchmarks/result/int.output
sat
(model
  (define-fun x0 () String
    "aaa")
)
